p cnf 12 50 
9 3 8 0
-11 10 -12 0
-12 -8 5 0
1 -12 -9 0
9 -3 -5 0
10 5 3 0
-11 -10 2 0
-7 -6 -9 0
-11 6 -5 0
10 12 -9 0
-1 -10 -5 0
10 -12 -1 0
-7 2 9 0
1 -6 -2 0
1 -10 7 0
-5 10 1 0
3 10 2 0
-1 8 9 0
7 6 11 0
-8 1 -3 0
-4 1 10 0
-2 -3 9 0
7 -5 -4 0
1 -2 10 0
6 -4 -8 0
-4 -6 -9 0
-3 -6 -4 0
-5 2 8 0
10 1 -12 0
-5 -6 12 0
-12 -8 -4 0
-7 1 2 0
-4 2 6 0
-5 12 1 0
8 -11 6 0
-9 -5 3 0
-3 -11 7 0
-10 -8 -9 0
-3 -5 -10 0
12 -4 7 0
-5 -1 6 0
-10 12 8 0
10 -12 8 0
9 -8 -3 0
-7 9 5 0
6 12 -4 0
6 -7 -8 0
8 12 2 0
-8 -4 2 0
9 5 8 0
